Route #1: 1 57 53 45 33 48 20 9 27 1 
Route #2: 1 14 35 21 7 40 39 44 59 41 15 17 1 
Route #3: 1 1 12 11 42 51 37 31 30 1 
Route #4: 1 28 26 36 55 23 19 10 3 1 
Route #5: 1 29 6 25 38 22 1 
Route #6: 1 43 52 13 32 24 16 8 46 58 49 1 
Route #7: 1 62 34 4 63 1 
Route #8: 1 50 5 54 47 61 1 
Route #9: 1 18 56 60 2 1 

Cost 1852.56
Time 0.5588


 * Another infos *

 Iterations: 64 Time: 0.5588 sec - 0.0093 min - 0.0002 horas
0.0000 h 0.0093 min
Problem dimension: 64
